\Problem name: compact

Minimize
OBJROW: C
Subject To
ord(0,1):  - x(0,1) + x(0,2) >= 3
ord(0,2):  x(0,0) - x(0,2) >= 1
ord(1,1):  x(1,1) - x(1,2) >= 8
ord(1,2):  x(1,0) - x(1,1) >= 4
ord(2,1):  - x(2,0) + x(2,1) >= 2
ord(2,2):  - x(2,1) + x(2,2) >= 3
triangle2(0,1,0):  y(0,1,0) + y(1,0,0) = 1
triangle2(0,1,1):  y(0,1,1) + y(1,0,1) = 1
triangle2(0,1,2):  y(0,1,2) + y(1,0,2) = 1
triangle2(0,2,0):  y(0,2,0) + y(2,0,0) = 1
triangle2(0,2,1):  y(0,2,1) + y(2,0,1) = 1
triangle2(0,2,2):  y(0,2,2) + y(2,0,2) = 1
triangle2(1,2,0):  y(1,2,0) + y(2,1,0) = 1
triangle2(1,2,1):  y(1,2,1) + y(2,1,1) = 1
triangle2(1,2,2):  y(1,2,2) + y(2,1,2) = 1
MCLinV(0,1,0):  x(0,0) - v(0,1,0) - x(1,0) = 6
MCLinV(1,0,0):  - x(0,0) - v(1,0,0) + x(1,0) = 9
MCLin1(0,1,0):  u(0,1,0) >= -0
MCLin2(0,1,0):  -41 y(1,0,0) - u(0,1,0) <= -0
MCLin3(0,1,0):  18 y(1,0,0) + v(0,1,0) - u(0,1,0) <= 18
MCLin4(0,1,0):  18 y(1,0,0) - u(0,1,0) >= -0
MCLin5(0,1,0):  -41 y(1,0,0) + v(0,1,0) - u(0,1,0) >= -41
MCLin6(1,0,0):  u(1,0,0) >= -0
MCLin7(1,0,0):  -33 y(0,1,0) - u(1,0,0) <= -0
MCLin8(1,0,0):  26 y(0,1,0) + v(1,0,0) - u(1,0,0) <= 26
MCLin9(1,0,0):  26 y(0,1,0) - u(1,0,0) >= -0
MCLin10(1,0,0):  -33 y(0,1,0) + v(1,0,0) - u(1,0,0) >= -33
MCLinV(0,1,1):  x(0,1) - v(0,1,1) - x(1,1) = 4
MCLinV(1,0,1):  - x(0,1) - v(1,0,1) + x(1,1) = 3
MCLin1(0,1,1):  u(0,1,1) >= -0
MCLin2(0,1,1):  -39 y(1,0,1) - u(0,1,1) <= -0
MCLin3(0,1,1):  20 y(1,0,1) + v(0,1,1) - u(0,1,1) <= 20
MCLin4(0,1,1):  20 y(1,0,1) - u(0,1,1) >= -0
MCLin5(0,1,1):  -39 y(1,0,1) + v(0,1,1) - u(0,1,1) >= -39
MCLin6(1,0,1):  u(1,0,1) >= -0
MCLin7(1,0,1):  -27 y(0,1,1) - u(1,0,1) <= -0
MCLin8(1,0,1):  32 y(0,1,1) + v(1,0,1) - u(1,0,1) <= 32
MCLin9(1,0,1):  32 y(0,1,1) - u(1,0,1) >= -0
MCLin10(1,0,1):  -27 y(0,1,1) + v(1,0,1) - u(1,0,1) >= -27
MCLinV(0,1,2):  x(0,2) - v(0,1,2) - x(1,2) = 8
MCLinV(1,0,2):  - x(0,2) - v(1,0,2) + x(1,2) = 1
MCLin1(0,1,2):  u(0,1,2) >= -0
MCLin2(0,1,2):  -32 y(1,0,2) - u(0,1,2) <= -0
MCLin3(0,1,2):  27 y(1,0,2) + v(0,1,2) - u(0,1,2) <= 27
MCLin4(0,1,2):  27 y(1,0,2) - u(0,1,2) >= -0
MCLin5(0,1,2):  -32 y(1,0,2) + v(0,1,2) - u(0,1,2) >= -32
MCLin6(1,0,2):  u(1,0,2) >= -0
MCLin7(1,0,2):  -36 y(0,1,2) - u(1,0,2) <= -0
MCLin8(1,0,2):  23 y(0,1,2) + v(1,0,2) - u(1,0,2) <= 23
MCLin9(1,0,2):  23 y(0,1,2) - u(1,0,2) >= -0
MCLin10(1,0,2):  -36 y(0,1,2) + v(1,0,2) - u(1,0,2) >= -36
MCLinV(0,2,0):  x(0,0) - v(0,2,0) - x(2,0) = 2
MCLinV(2,0,0):  - x(0,0) - v(2,0,0) + x(2,0) = 9
MCLin1(0,2,0):  u(0,2,0) >= -0
MCLin2(0,2,0):  -29 y(2,0,0) - u(0,2,0) <= -0
MCLin3(0,2,0):  34 y(2,0,0) + v(0,2,0) - u(0,2,0) <= 34
MCLin4(0,2,0):  34 y(2,0,0) - u(0,2,0) >= -0
MCLin5(0,2,0):  -29 y(2,0,0) + v(0,2,0) - u(0,2,0) >= -29
MCLin6(2,0,0):  u(2,0,0) >= -0
MCLin7(2,0,0):  -45 y(0,2,0) - u(2,0,0) <= -0
MCLin8(2,0,0):  18 y(0,2,0) + v(2,0,0) - u(2,0,0) <= 18
MCLin9(2,0,0):  18 y(0,2,0) - u(2,0,0) >= -0
MCLin10(2,0,0):  -45 y(0,2,0) + v(2,0,0) - u(2,0,0) >= -45
MCLinV(0,2,1):  x(0,1) - v(0,2,1) - x(2,1) = 3
MCLinV(2,0,1):  - x(0,1) - v(2,0,1) + x(2,1) = 3
MCLin1(0,2,1):  u(0,2,1) >= -0
MCLin2(0,2,1):  -36 y(2,0,1) - u(0,2,1) <= -0
MCLin3(0,2,1):  27 y(2,0,1) + v(0,2,1) - u(0,2,1) <= 27
MCLin4(0,2,1):  27 y(2,0,1) - u(0,2,1) >= -0
MCLin5(0,2,1):  -36 y(2,0,1) + v(0,2,1) - u(0,2,1) >= -36
MCLin6(2,0,1):  u(2,0,1) >= -0
MCLin7(2,0,1):  -33 y(0,2,1) - u(2,0,1) <= -0
MCLin8(2,0,1):  30 y(0,2,1) + v(2,0,1) - u(2,0,1) <= 30
MCLin9(2,0,1):  30 y(0,2,1) - u(2,0,1) >= -0
MCLin10(2,0,1):  -33 y(0,2,1) + v(2,0,1) - u(2,0,1) >= -33
MCLinV(0,2,2):  x(0,2) - v(0,2,2) - x(2,2) = 9
MCLinV(2,0,2):  - x(0,2) - v(2,0,2) + x(2,2) = 1
MCLin1(0,2,2):  u(0,2,2) >= -0
MCLin2(0,2,2):  -42 y(2,0,2) - u(0,2,2) <= -0
MCLin3(0,2,2):  21 y(2,0,2) + v(0,2,2) - u(0,2,2) <= 21
MCLin4(0,2,2):  21 y(2,0,2) - u(0,2,2) >= -0
MCLin5(0,2,2):  -42 y(2,0,2) + v(0,2,2) - u(0,2,2) >= -42
MCLin6(2,0,2):  u(2,0,2) >= -0
MCLin7(2,0,2):  -31 y(0,2,2) - u(2,0,2) <= -0
MCLin8(2,0,2):  32 y(0,2,2) + v(2,0,2) - u(2,0,2) <= 32
MCLin9(2,0,2):  32 y(0,2,2) - u(2,0,2) >= -0
MCLin10(2,0,2):  -31 y(0,2,2) + v(2,0,2) - u(2,0,2) >= -31
MCLinV(1,2,0):  x(1,0) - v(1,2,0) - x(2,0) = 2
MCLinV(2,1,0):  - x(1,0) - v(2,1,0) + x(2,0) = 6
MCLin1(1,2,0):  u(1,2,0) >= -0
MCLin2(1,2,0):  -21 y(2,1,0) - u(1,2,0) <= -0
MCLin3(1,2,0):  37 y(2,1,0) + v(1,2,0) - u(1,2,0) <= 37
MCLin4(1,2,0):  37 y(2,1,0) - u(1,2,0) >= -0
MCLin5(1,2,0):  -21 y(2,1,0) + v(1,2,0) - u(1,2,0) >= -21
MCLin6(2,1,0):  u(2,1,0) >= -0
MCLin7(2,1,0):  -45 y(1,2,0) - u(2,1,0) <= -0
MCLin8(2,1,0):  13 y(1,2,0) + v(2,1,0) - u(2,1,0) <= 13
MCLin9(2,1,0):  13 y(1,2,0) - u(2,1,0) >= -0
MCLin10(2,1,0):  -45 y(1,2,0) + v(2,1,0) - u(2,1,0) >= -45
MCLinV(1,2,1):  x(1,1) - v(1,2,1) - x(2,1) = 3
MCLinV(2,1,1):  - x(1,1) - v(2,1,1) + x(2,1) = 4
MCLin1(1,2,1):  u(1,2,1) >= -0
MCLin2(1,2,1):  -28 y(2,1,1) - u(1,2,1) <= -0
MCLin3(1,2,1):  30 y(2,1,1) + v(1,2,1) - u(1,2,1) <= 30
MCLin4(1,2,1):  30 y(2,1,1) - u(1,2,1) >= -0
MCLin5(1,2,1):  -28 y(2,1,1) + v(1,2,1) - u(1,2,1) >= -28
MCLin6(2,1,1):  u(2,1,1) >= -0
MCLin7(2,1,1):  -37 y(1,2,1) - u(2,1,1) <= -0
MCLin8(2,1,1):  21 y(1,2,1) + v(2,1,1) - u(2,1,1) <= 21
MCLin9(2,1,1):  21 y(1,2,1) - u(2,1,1) >= -0
MCLin10(2,1,1):  -37 y(1,2,1) + v(2,1,1) - u(2,1,1) >= -37
MCLinV(1,2,2):  x(1,2) - v(1,2,2) - x(2,2) = 9
MCLinV(2,1,2):  - x(1,2) - v(2,1,2) + x(2,2) = 8
MCLin1(1,2,2):  u(1,2,2) >= -0
MCLin2(1,2,2):  -45 y(2,1,2) - u(1,2,2) <= -0
MCLin3(1,2,2):  13 y(2,1,2) + v(1,2,2) - u(1,2,2) <= 13
MCLin4(1,2,2):  13 y(2,1,2) - u(1,2,2) >= -0
MCLin5(1,2,2):  -45 y(2,1,2) + v(1,2,2) - u(1,2,2) >= -45
MCLin6(2,1,2):  u(2,1,2) >= -0
MCLin7(2,1,2):  -30 y(1,2,2) - u(2,1,2) <= -0
MCLin8(2,1,2):  28 y(1,2,2) + v(2,1,2) - u(2,1,2) <= 28
MCLin9(2,1,2):  28 y(1,2,2) - u(2,1,2) >= -0
MCLin10(2,1,2):  -30 y(1,2,2) + v(2,1,2) - u(2,1,2) >= -30
makespan(0):  C - x(0,0) >= 9
makespan(1):  C - x(1,0) >= 6
makespan(2):  C - x(2,2) >= 9
cut_clique_0(012,0):  0.00538 x(0,0) + 0.07527 x(1,0) >= 1
cut_clique_0(012,1):  0.06667 x(0,1) + 0.33333 x(2,1) >= 1
cut_clique_0(012,2):  0.01124 x(0,2) + 0.03291 x(1,2) + 0.10112 x(2,2) >= 1
cut_clique_0:  0.02381 x(0,0) + 0.04762 x(1,0) + 0.07143 x(1,2) >= 1
cut_clique_1:  0.01512 x(0,0) + 0.03024 x(1,0) + 0.00410 x(0,2) + 0.02281 x(1,2) + 0.03690 x(2,2) >= 1
Bounds
 0 <= C <= 45
 4 <= x(0,0) <= 36
 0 <= y(0,1,0) <= 1
 0 <= y(1,0,0) <= 1
 -41 <= v(0,1,0) <= 18
 -33 <= v(1,0,0) <= 26
 -450 <= u(0,1,0)
 -450 <= u(1,0,0)
 0 <= y(0,2,0) <= 1
 0 <= y(2,0,0) <= 1
 -29 <= v(0,2,0) <= 34
 -45 <= v(2,0,0) <= 18
 -450 <= u(0,2,0)
 -450 <= u(2,0,0)
 12 <= x(1,0) <= 39
 0 <= y(1,2,0) <= 1
 0 <= y(2,1,0) <= 1
 -21 <= v(1,2,0) <= 37
 -45 <= v(2,1,0) <= 13
 -450 <= u(1,2,0)
 -450 <= u(2,1,0)
 0 <= x(2,0) <= 31
 0 <= x(0,1) <= 32
 0 <= y(0,1,1) <= 1
 0 <= y(1,0,1) <= 1
 -39 <= v(0,1,1) <= 20
 -27 <= v(1,0,1) <= 32
 -450 <= u(0,1,1)
 -450 <= u(1,0,1)
 0 <= y(0,2,1) <= 1
 0 <= y(2,0,1) <= 1
 -36 <= v(0,2,1) <= 27
 -33 <= v(2,0,1) <= 30
 -450 <= u(0,2,1)
 -450 <= u(2,0,1)
 8 <= x(1,1) <= 35
 0 <= y(1,2,1) <= 1
 0 <= y(2,1,1) <= 1
 -28 <= v(1,2,1) <= 30
 -37 <= v(2,1,1) <= 21
 -450 <= u(1,2,1)
 -450 <= u(2,1,1)
 2 <= x(2,1) <= 33
 3 <= x(0,2) <= 35
 0 <= y(0,1,2) <= 1
 0 <= y(1,0,2) <= 1
 -32 <= v(0,1,2) <= 27
 -36 <= v(1,0,2) <= 23
 -450 <= u(0,1,2)
 -450 <= u(1,0,2)
 0 <= y(0,2,2) <= 1
 0 <= y(2,0,2) <= 1
 -42 <= v(0,2,2) <= 21
 -31 <= v(2,0,2) <= 32
 -450 <= u(0,2,2)
 -450 <= u(2,0,2)
 0 <= x(1,2) <= 27
 0 <= y(1,2,2) <= 1
 0 <= y(2,1,2) <= 1
 -45 <= v(1,2,2) <= 13
 -30 <= v(2,1,2) <= 28
 -450 <= u(1,2,2)
 -450 <= u(2,1,2)
 5 <= x(2,2) <= 36
Integers
C x(0,0) y(0,1,0) y(1,0,0) v(0,1,0) v(1,0,0) u(0,1,0) u(1,0,0) y(0,2,0) y(2,0,0) 
v(0,2,0) v(2,0,0) u(0,2,0) u(2,0,0) x(1,0) y(1,2,0) y(2,1,0) v(1,2,0) v(2,1,0) u(1,2,0) 
u(2,1,0) x(2,0) x(0,1) y(0,1,1) y(1,0,1) v(0,1,1) v(1,0,1) u(0,1,1) u(1,0,1) y(0,2,1) 
y(2,0,1) v(0,2,1) v(2,0,1) u(0,2,1) u(2,0,1) x(1,1) y(1,2,1) y(2,1,1) v(1,2,1) v(2,1,1) 
u(1,2,1) u(2,1,1) x(2,1) x(0,2) y(0,1,2) y(1,0,2) v(0,1,2) v(1,0,2) u(0,1,2) u(1,0,2) 
y(0,2,2) y(2,0,2) v(0,2,2) v(2,0,2) u(0,2,2) u(2,0,2) x(1,2) y(1,2,2) y(2,1,2) v(1,2,2) 
v(2,1,2) u(1,2,2) u(2,1,2) x(2,2) 
End
